SCIP Status        : solving was interrupted [time limit reached]
Total Time         :    3600.03
  solving          :    3600.02
  presolving       :       0.40 (included in solving)
  reading          :       0.01
  copying          :       0.75 (61 #copies) (minimal 0.00, maximal 0.02, average 0.01)
Original Problem   :
  Problem name     : bbbenchmark/pw09_100.1.cut
  Variables        : 101 (100 binary, 0 integer, 0 implicit integer, 1 continuous)
  Constraints      : 1 initial, 1 maximal
  Objective        : minimize, 1 non-zeros (abs.min = 1, abs.max = 1)
Presolved Problem  :
  Problem name     : t_bbbenchmark/pw09_100.1.cut
  Variables        : 1290 (100 binary, 0 integer, 1140 implicit integer, 50 continuous)
  Constraints      : 1288 initial, 8194 maximal
  Objective        : minimize, 1 non-zeros (abs.min = 1, abs.max = 1)
  Nonzeros         : 11585 constraint, 202 clique table
Presolvers         :   ExecTime  SetupTime  Calls  FixedVars   AggrVars   ChgTypes  ChgBounds   AddHoles    DelCons    AddCons   ChgSides   ChgCoefs
  boundshift       :       0.00       0.00      0          0          0          0          0          0          0          0          0          0
  convertinttobin  :       0.00       0.00      0          0          0          0          0          0          0          0          0          0
  domcol           :       0.00       0.00      1          0          0          0          0          0          0          0          0          0
  dualagg          :       0.00       0.00      0          0          0          0          0          0          0          0          0          0
  dualcomp         :       0.00       0.00      1          0          0          0          0          0          0          0          0          0
  dualinfer        :       0.00       0.00      0          0          0          0          0          0          0          0          0          0
  dualsparsify     :       0.00       0.00      1          0          0          0          0          0          0          0          0          0
  gateextraction   :       0.00       0.00      0          0          0          0          0          0          0          0          0          0
  implics          :       0.00       0.00      2          0          0          0          0          0          0          0          0          0
  inttobinary      :       0.00       0.00      0          0          0          0          0          0          0          0          0          0
  qpkktref         :       0.00       0.00      0          0          0          0          0          0          0          0          0          0
  redvub           :       0.00       0.00      0          0          0          0          0          0          0          0          0          0
  sparsify         :       0.00       0.00      1          0          0          0          0          0          0          0          0          0
  stuffing         :       0.00       0.00      0          0          0          0          0          0          0          0          0          0
  trivial          :       0.00       0.00      4          0          0          0          0          0          0          0          0          0
  tworowbnd        :       0.00       0.00      0          0          0          0          0          0          0          0          0          0
  dualfix          :       0.00       0.00      4          0          0          0          0          0          0          0          0          0
  genvbounds       :       0.00       0.00      0          0          0          0          0          0          0          0          0          0
  probing          :       0.20       0.00      1          0          0          0          0          0          0          0          0          0
  pseudoobj        :       0.00       0.00      1          0          0          0          1          0          0          0          0          0
  symmetry         :       0.00       0.00      0          0          0          0          0          0          0          0          0          0
  vbounds          :       0.00       0.00      1          0          0          0          0          0          0          0          0          0
  varbound         :       0.00       0.00      2          0          0          0          0          0          0          0          0          0
  and              :       0.00       0.00      2          0          0          0          0          0          0          0          0          0
  linear           :       0.01       0.00      2          0          0          0          0          0          0          0          0          0
  logicor          :       0.00       0.00      0          0          0          0          0          0          0          0          0          0
  bounddisjunction :       0.00       0.00      0          0          0          0          0          0          0          0          0          0
  nonlinear        :       0.18       0.01      5          0          0          0          1          0          0       1287          0          0
  benders          :       0.00       0.00      0          0          0          0          0          0          0          0          0          0
  components       :       0.00       0.00      1          0          0          0          0          0          0          0          0          0
  root node        :          -          -      -          0          -          -          6          -          -          -          -          -
Constraints        :     Number  MaxNumber  #Separate #Propagate    #EnfoLP    #EnfoRelax  #EnfoPS    #Check   #ResProp    Cutoffs    DomReds       Cuts    Applied      Conss   Children
  benderslp        :          0          0          0          0     469399          0          0      31547          0          0          0          0          0          0          0
  integral         :          0          0          0          0     469399          0          0      31547          0          0          6          0          0          0     938782
  varbound         :         49         49        209    2154777          0          0          0      18067          0          0     123098          0          0          0          0
  and              :       1140       1140     482909    2180941          3          0          0      18067     290518          2     993832       3866       3485          0          0
  linear           :         99+       199        209    2181180          3          0          0      18065     211298       3756    3443963          0          0          0          0
  logicor          :          0+       745         46     147852          0          0          0          0          4        403          2          0          0          0          0
  bounddisjunction :          0+      6062          0     242958          0          0          0          0         24         93          0          0          0          0          0
  benders          :          0          0          0          0          3          0          0         15          0          0          0          0          0          0          0
  countsols        :          0          0          0          0          3          0          0         15          0          0          0          0          0          0          0
  components       :          0          0          0          0          0          0          0          0          0          0          0          0          0          0          0
Constraint Timings :  TotalTime  SetupTime   Separate  Propagate     EnfoLP     EnfoPS     EnfoRelax   Check    ResProp    SB-Prop
  benderslp        :       0.40       0.00       0.00       0.00       0.39       0.00       0.00       0.01       0.00       0.00
  integral         :     108.58       0.00       0.00       0.00     107.65       0.00       0.00       0.93       0.00       0.00
  varbound         :       3.93       0.00       0.00       3.65       0.00       0.00       0.00       0.28       0.00       0.00
  and              :     148.19       0.00     116.86      27.87       0.00       0.00       0.00       3.20       0.21       0.05
  linear           :      33.27       0.00       0.14      32.31       0.00       0.00       0.00       0.19       0.61       0.02
  logicor          :       3.23       0.00       0.00       3.23       0.00       0.00       0.00       0.00       0.00       0.00
  bounddisjunction :      16.42       0.00       0.00      16.42       0.00       0.00       0.00       0.00       0.00       0.00
  benders          :       0.00       0.00       0.00       0.00       0.00       0.00       0.00       0.00       0.00       0.00
  countsols        :       0.00       0.00       0.00       0.00       0.00       0.00       0.00       0.00       0.00       0.00
  components       :       0.56       0.00       0.00       0.56       0.00       0.00       0.00       0.00       0.00       0.00
Propagators        : #Propagate   #ResProp    Cutoffs    DomReds
  dualfix          :          2          0          0          0
  genvbounds       :          0          0          0          0
  nlobbt           :          0          0          0          0
  obbt             :          0          0          0          0
  probing          :          0          0          0          0
  pseudoobj        :    1523489         44          0        175
  redcost          :     956512          0          0      14453
  rootredcost      :         10          0          0          0
  symmetry         :          0          0          0          0
  vbounds          :     285842          0          0          0
Propagator Timings :  TotalTime  SetupTime   Presolve  Propagate    ResProp    SB-Prop
  dualfix          :       0.00       0.00       0.00       0.00       0.00       0.00
  genvbounds       :       1.27       0.00       0.00       1.27       0.00       0.00
  nlobbt           :       0.00       0.00       0.00       0.00       0.00       0.00
  obbt             :       0.00       0.00       0.00       0.00       0.00       0.00
  probing          :       0.20       0.00       0.20       0.00       0.00       0.00
  pseudoobj        :       2.24       0.00       0.00       2.24       0.00       0.00
  redcost          :      29.58       0.00       0.00      29.58       0.00       0.00
  rootredcost      :       1.64       0.00       0.00       1.64       0.00       0.00
  symmetry         :       0.85       0.00       0.00       0.85       0.00       0.00
  vbounds          :       1.81       0.00       0.00       1.80       0.00       0.01
Conflict Analysis  :       Time      Calls    Success    DomReds  Conflicts   Literals    Reconvs ReconvLits   Dualrays   Nonzeros   LP Iters   (pool size: [10000,10000])
  propagation      :       0.02        508        369          -        867      176.6          0        0.0          -          -          -
  infeasible LP    :       4.05       4948       4948          -      91296       97.8          0        0.0       9073      107.4          0
  bound exceed. LP :      46.84      13817      13525          -     143464       91.0          2       84.5          0        0.0     192221
  strong branching :       0.00          0          0          -          0        0.0          0        0.0          -          -          0
  pseudo solution  :       0.00          0          0          -          0        0.0          0        0.0          -          -          -
  applied globally :       0.74          -          -          0      45280       85.7          -          -       9073          -          -
  applied locally  :          -          -          -          0          0        0.0          -          -          0          -          -
Separators         :   ExecTime  SetupTime      Calls  RootCalls    Cutoffs    DomReds  FoundCuts ViaPoolAdd  DirectAdd    Applied ViaPoolApp  DirectApp      Conss
  cut pool         :       3.36          -      64762        237          -          -      24566     790461          -          -          -          -          -    (maximal pool size:       1686)
  aggregation      :     188.63       0.00       8668        209          0          0          4          6          0          6          6          0          0
  > cmir           :          -          -          -          -          -          -          -          6          0          6          6          0          -
  > flowcover      :          -          -          -          -          -          -          -          0          0          0          0          0          -
  > knapsackcover  :          -          -          -          -          -          -          -          0          0          0          0          0          -
  cgmip            :       0.00       0.00          0          0          0          0          0          0          0          0          0          0          0
  clique           :       0.01       0.00        209        209          0          0          0          0          0          0          0          0          0
  closecuts        :       0.00       0.00          0          0          0          0          0          0          0          0          0          0          0
  convexproj       :       0.00       0.00          0          0          0          0          0          0          0          0          0          0          0
  disjunctive      :       0.00       0.00          0          0          0          0          0          0          0          0          0          0          0
  eccuts           :       0.00       0.00          0          0          0          0          0          0          0          0          0          0          0
  gauge            :       0.00       0.00          0          0          0          0          0          0          0          0          0          0          0
  gomory           :       0.00       0.00          0          0          0          0          0          0          0          0          0          0          0
  > gomorymi       :          -          -          -          -          -          -          -          0          0          0          0          0          -
  > strongcg       :          -          -          -          -          -          -          -          0          0          0          0          0          -
  impliedbounds    :       0.31       0.00       8668        209          0          0          0          0          0          0          0          0          0
  interlattice     :       0.00       0.00          0          0          0          0          0          0          0          0          0          0          0
  interminor       :       0.00       0.00          0          0          0          0          0          0          0          0          0          0          0
  intersub         :       4.63       0.00        160        160          0          0        160          0        160        160          0        160          0
  intobj           :       0.00       0.00          0          0          0          0          0          0          0          0          0          0          0
  mcf              :       0.00       0.00          1          1          0          0          0          0          0          0          0          0          0
  minor            :       0.00       0.00          0          0          0          0          0          0          0          0          0          0          0
  mixing           :       0.04       0.00       8668        209          0          0          0          0          0          0          0          0          0
  oddcycle         :       0.00       0.00          0          0          0          0          0          0          0          0          0          0          0
  rapidlearning    :       0.04       0.00          0          0          0          0          0          0          0          0          0          0          0
  rlt              :       0.00       0.00         10         10          0          0          0          0          0          0          0          0          0
  zerohalf         :      16.82       0.00       8020         20          0          0      24562     790455          0     104983     104983          0          0
Cutselectors       :   ExecTime  SetupTime      Calls  RootCalls   Selected     Forced   Filtered  RootSelec   RootForc   RootFilt 
  hybrid           :       0.42       0.00      16394        208     108634          0     685853        315          0          5
Pricers            :   ExecTime  SetupTime      Calls       Vars
  problem variables:       0.00          -          0          0
Branching Rules    :   ExecTime  SetupTime   BranchLP  BranchExt   BranchPS    Cutoffs    DomReds       Cuts      Conss   Children
  allfullstrong    :       0.00       0.00          0          0          0          0          0          0          0          0
  cloud            :       0.00       0.00          0          0          0          0          0          0          0          0
  distribution     :       0.00       0.00          0          0          0          0          0          0          0          0
  fullstrong       :       0.00       0.00          0          0          0          0          0          0          0          0
  inference        :       0.00       0.00          0          0          0          0          0          0          0          0
  leastinf         :       0.00       0.00          0          0          0          0          0          0          0          0
  lookahead        :       0.00       0.00          0          0          0          0          0          0          0          0
  mostinf          :       0.00       0.00          0          0          0          0          0          0          0          0
  multaggr         :       0.00       0.00          0          0          0          0          0          0          0          0
  nodereopt        :       0.00       0.00          0          0          0          0          0          0          0          0
  pscost           :       0.00       0.00          0          0          0          0          0          0          0          0
  random           :       0.00       0.00          0          0          0          0          0          0          0          0
  relpscost        :     106.54       0.00     469396          0          0          0          6          0          0     938782
  vanillafullstrong:       0.00       0.00          0          0          0          0          0          0          0          0
Primal Heuristics  :   ExecTime  SetupTime      Calls      Found       Best
  LP solutions     :       0.60          -          -          3          3
  relax solutions  :       0.00          -          -          0          0
  pseudo solutions :       0.00          -          -          0          0
  strong branching :       0.00          -          -          0          0
  actconsdiving    :       0.00       0.00          0          0          0
  adaptivediving   :       9.15       0.00        147          1          1
  alns             :       1.41       0.00         20          0          0
  bound            :       0.00       0.00          0          0          0
  clique           :       0.00       0.00          1          0          0
  coefdiving       :       0.00       0.00          0          0          0
  completesol      :       0.00       0.00          0          0          0
  conflictdiving   :     147.43       0.00       6196          0          0
  crossover        :       2.71       0.00          4          2          2
  dins             :       0.00       0.00          0          0          0
  distributiondivin:      75.19       0.00       1201          0          0
  dps              :       0.00       0.00          0          0          0
  dualval          :       0.00       0.00          0          0          0
  farkasdiving     :       0.02       0.00          0          0          0
  feaspump         :      57.03       0.00        813          0          0
  fixandinfer      :       0.00       0.00          0          0          0
  fracdiving       :      38.25       0.00        491          0          0
  gins             :       0.48       0.00          0          0          0
  guideddiving     :      39.00       0.00        764          1          1
  indicator        :       0.32       0.00          0          0          0
  indicatordiving  :       0.00       0.00          0          0          0
  intdiving        :       0.00       0.00          0          0          0
  intshifting      :       1.62       0.00        267          0          0
  linesearchdiving :      37.80       0.00        995          0          0
  localbranching   :       0.00       0.00          0          0          0
  locks            :       0.01       0.00          1          0          0
  lpface           :       0.61       0.00          0          0          0
  mpec             :      60.14       0.00         11          0          0
  multistart       :       0.00       0.00          0          0          0
  mutation         :       0.00       0.00          0          0          0
  nlpdiving        :      11.90       0.00          1          0          0
  objpscostdiving  :      28.68       0.00        246          2          1
  octane           :       0.00       0.00          0          0          0
  ofins            :       0.24       0.00          0          0          0
  oneopt           :       0.24       0.00         12          0          0
  padm             :       0.00       0.00          0          0          0
  proximity        :       0.00       0.00          0          0          0
  pscostdiving     :      42.28       0.00        535          1          1
  randrounding     :       6.87       0.00      31626          0          0
  rens             :       0.00       0.00          0          0          0
  reoptsols        :       0.00       0.00          0          0          0
  repair           :       0.00       0.00          0          0          0
  rins             :       3.73       0.00         36          0          0
  rootsoldiving    :      26.43       0.00        264          1          0
  rounding         :       3.15       0.00       9801          0          0
  shiftandpropagate:       0.00       0.00          0          0          0
  shifting         :      33.71       0.00      11114          1          1
  simplerounding   :       0.44       0.00          0          0          0
  subnlp           :     312.37       0.00          0          0          0
  trivial          :       0.02       0.00          2          2          2
  trivialnegation  :       0.00       0.00          0          0          0
  trustregion      :       0.00       0.00          0          0          0
  trysol           :       0.48       0.00          0          0          0
  twoopt           :       0.00       0.00          0          0          0
  undercover       :       4.04       0.00          1          1          1
  vbounds          :       0.00       0.00          0          0          0
  veclendiving     :      60.99       0.00       5284          0          0
  zeroobj          :       0.00       0.00          0          0          0
  zirounding       :       0.52       0.00       1000          0          0
  other solutions  :          -          -          -          0          -
Diving (single)    :      Calls      Nodes   LP Iters Backtracks  Conflicts   MinDepth   MaxDepth   AvgDepth  RoundSols  NLeafSols  MinSolDpt  MaxSolDpt  AvgSolDpt
  actconsdiving    :          0          -          -          -          -          -          -          -          -          -          -          -          -
  coefdiving       :          0          -          -          -          -          -          -          -          -          -          -          -          -
  conflictdiving   :       6196     167850     887265       2719      94214         61         92       81.9          0          -          -          -          -
  distributiondivin:       1201      38857     298951       1260      18195         62         95       77.9          0          -          -          -          -
  farkasdiving     :          0          -          -          -          -          -          -          -          -          -          -          -          -
  fracdiving       :        491      24363     302618        345       4405         66        212       93.0          0          -          -          -          -
  guideddiving     :        764      29430     304179        187       6754         62        158       87.7          0          1        113        113      113.0
  indicatordiving  :          0          -          -          -          -          -          -          -          -          -          -          -          -
  linesearchdiving :        995      39254     299117        254      17630         66        101       85.4          0          -          -          -          -
  pscostdiving     :        535      17284     307046        463       5380         66         92       80.6          0          1         87         87       87.0
  veclendiving     :       5284     149646     296723       2923      95016         67         98       82.8          0          -          -          -          -
Diving (adaptive)  :      Calls      Nodes   LP Iters Backtracks  Conflicts   MinDepth   MaxDepth   AvgDepth  RoundSols  NLeafSols  MinSolDpt  MaxSolDpt  AvgSolDpt
  actconsdiving    :         18        838       6456         23        228         70         84       75.6          0          -          -          -          -
  coefdiving       :         31       1727       8686         30        743         69         97       85.9          0          -          -          -          -
  conflictdiving   :          0          -          -          -          -          -          -          -          -          -          -          -          -
  distributiondivin:          0          -          -          -          -          -          -          -          -          -          -          -          -
  farkasdiving     :          0          -          -          -          -          -          -          -          -          -          -          -          -
  fracdiving       :          4        352       3466          3         31         69        214      126.5          0          -          -          -          -
  guideddiving     :         16        735       7471          7        210         70        118       89.7          0          1         91         91       91.0
  indicatordiving  :          0          -          -          -          -          -          -          -          -          -          -          -          -
  linesearchdiving :         56       2592      16319         10       1150         68         99       85.6          0          -          -          -          -
  pscostdiving     :         11        302       4869          8         87         71         87       80.4          0          -          -          -          -
  veclendiving     :         11        586       2211         11        118         78         95       87.7          0          -          -          -          -
Neighborhoods      :      Calls  SetupTime  SolveTime SolveNodes       Sols       Best       Exp3  EpsGreedy        UCB TgtFixRate  Opt  Inf Node Stal  Sol  Usr Othr Actv
  rens             :          3       0.04       0.06         52          0          0    0.00000   -1.00000    0.50296      0.737    0    2    0    1    0    0    0    1
  rins             :          1       0.01       0.04         83          0          0    0.00000   -1.00000    0.48679      0.900    0    0    0    1    0    0    0    1
  mutation         :          2       0.02       0.08         82          0          0    0.00000   -1.00000    0.46380      0.850    0    1    0    1    0    0    0    1
  localbranching   :          3       0.06       0.13        173          0          0    0.00000   -1.00000    0.46644      0.863    0    1    0    2    0    0    0    1
  crossover        :          4       0.06       0.35        121          0          0    0.00000   -1.00000    0.43165      0.522    0    3    0    1    0    0    0    1
  proximity        :          2       0.03       0.05         85          0          0    0.00000   -1.00000    0.45985      0.850    0    1    0    1    0    0    0    1
  zeroobjective    :          2       0.03       0.04         90          0          0    0.00000   -1.00000    0.45885      0.850    0    1    0    1    0    0    0    1
  dins             :          3       0.06       0.13        155          0          0    0.00000   -1.00000    0.47040      0.863    0    1    0    2    0    0    0    1
  trustregion      :          0       0.00       0.00          0          0          0    0.00000   -1.00000    1.00000      0.900    0    0    0    0    0    0    0    0
Expressions        :   #IntEval  IntEvalTi   #RevProp  RevPropTi    DomReds    Cutoffs  #Estimate  EstimTime  Branching  #Simplify SimplifyTi Simplified
  pow              :          0       0.00          0       0.00          0          0          0       0.00          0          0       0.00          0
  prod             :      17820       0.01          0       0.00          0          0          0       0.00          0      10050       0.03          0
  sum              :          8       0.00          2       0.00          0          0          0       0.00          0          3       0.03          2
  var              :       4679       0.00          0       0.00          0          0          0       0.00          0      21592       0.02          0
  varidx           :          0       0.00          0       0.00          0          0          0       0.00          0          0       0.00          0
LP                 :       Time      Calls Iterations  Iter/call   Iter/sec  Time-0-It Calls-0-It    ItLimit
  primal LP        :     205.05      25971          0       0.00       0.00     204.96      25971
  dual LP          :    1320.75     491836    5898010      12.03    4465.65       0.81       1383
  lex dual LP      :       0.00          0          0       0.00          -
  barrier LP       :       0.00          0          0       0.00          -       0.00          0
  resolve instable :       0.00          0          0       0.00          -
  diving/probing LP:     388.02      51364    2995082      58.31    7718.89
  strong branching :      28.72        313     110735     353.79    3855.68          -          -         22
    (at root node) :          -         19      14612     769.05          -
  conflict analysis:      27.45      21486     192221       8.95    7002.59
NLP relaxation     :
  solve time       :      11.78 (9 calls)
  convexity        :  nonconvex (148 linear rows, 0 convex ineq., 0 nonconvex ineq., 1140 nonlinear eq. or two-sided ineq.)
NLP Solvers        :  #Problems  ProblemTi    #Solves  SolveTime      #Iter  Time/Iter      #Okay #TimeLimit #IterLimit #LObjLimit #Interrupt  #NumError #EvalError  #OutOfMem #LicenseEr #OtherTerm   #GlobOpt    #LocOpt  #Feasible #LocInfeas #GlobInfea #Unbounded   #Unknown
  ipopt            :         12      15.48         46      71.88       1749       0.04         43          0          3          0          0          0          0          0          0          0          0         23          1         20          0          0          2
B&B Tree           :
  number of runs   :          1
  nodes            :     474132 (469391 internal, 4741 leaves)
  feasible leaves  :          3
  infeas. leaves   :         73
  objective leaves :       4664
  nodes (total)    :     474132 (469391 internal, 4741 leaves)
  nodes left       :     461420
  max depth        :         84
  max depth (total):         84
  backtracks       :      55208 (11.6%)
  early backtracks :          0 (0.0%)
  nodes exc. ref.  :          0 (0.0%)
  delayed cutoffs  :          0
  repropagations   :          4 (0 domain reductions, 0 cutoffs)
  avg switch length:       8.68
  switching time   :     325.35
Estim. Tree Size   :     954726
Estimation Tree    : 938783 nodes (477363 visited, 469391 internal, 7972 leaves, 461420 open), weight: 0.0000 completed 0.0105
Estimations        :      estim      value      trend resolution     smooth
  wbe              :         in          -          -          -          -
  tree-profile     :         -1          -          -          -          -
  gap              :    5446945    0.58836    0.00000          8    5325685
  tree-weight      :     954726    0.00000    0.00000          8     954179
  leaf-frequency   :    2282403    0.01670    0.00000          8    2465300
  ssg              :   13197903    0.98339   -0.00000          8   12757355
  open-nodes       :     954726 461420.00000  122.70376          8     954179
Root Node          :
  First LP value   : -5.44713804713805e+00
  First LP Iters   :       2193 (13706.25 Iter/sec)
  First LP Time    :       0.16
  Final Dual Bound : -5.24047395223366e+00
  Final Root Iters :      18582
  Root LP Estimate : -2.52430506442348e+00
Solution           :
  Solutions found  :         15 (13 improvements)
  First Solution   : +1.00000000000000e+05   (in run 1, after 0 nodes, 0.05 seconds, depth 0, found by <trivial>)
  Gap First Sol.   :   infinite
  Gap Last Sol.    :      70.05 %
  Primal Bound     : -2.98406285072952e+00   (in run 1, after 436249 nodes, 3364.55 seconds, depth 76, found by <crossover>)
  Dual Bound       : -5.07180618826332e+00
  Gap              :      69.96 %
Integrals          :      Total       Avg%
  primal-dual      :  153745.43      42.71
  primal-ref       :          -          - (not evaluated)
  dual-ref         :          -          - (not evaluated)
